sat
(
  (define-fun MemProv3 () Int
    3750)
  (define-fun C2_VM1 () Int
    0)
  (define-fun VM6Type () Int
    37)
  (define-fun VM5Type () Int
    27)
  (define-fun C2_VM3 () Int
    1)
  (define-fun MemProv5 () Int
    7500)
  (define-fun C2_VM2 () Int
    0)
  (define-fun VM7Type () Int
    26)
  (define-fun C5_VM6 () Int
    0)
  (define-fun C2_VM8 () Int
    0)
  (define-fun MemProv8 () Int
    7500)
  (define-fun C3_VM6 () Int
    0)
  (define-fun MemProv9 () Int
    3750)
  (define-fun C2_VM7 () Int
    0)
  (define-fun C2_VM9 () Int
    0)
  (define-fun C2_VM10 () Int
    0)
  (define-fun C3_VM5 () Int
    1)
  (define-fun PriceProv10 () Int
    128)
  (define-fun C5_VM8 () Int
    1)
  (define-fun MemProv4 () Int
    3750)
  (define-fun C5_VM9 () Int
    0)
  (define-fun MemProv7 () Int
    7500)
  (define-fun C2_VM4 () Int
    1)
  (define-fun C1_VM9 () Int
    1)
  (define-fun C5_VM1 () Int
    0)
  (define-fun MemProv10 () Int
    3750)
  (define-fun C3_VM2 () Int
    0)
  (define-fun PriceProv8 () Int
    252)
  (define-fun C5_VM7 () Int
    1)
  (define-fun C5_VM3 () Int
    0)
  (define-fun C4_VM8 () Int
    0)
  (define-fun C5_VM2 () Int
    0)
  (define-fun C2_VM6 () Int
    1)
  (define-fun StorageProv10 () Int
    2000)
  (define-fun C4_VM4 () Int
    0)
  (define-fun C1_VM4 () Int
    0)
  (define-fun C1_VM7 () Int
    0)
  (define-fun C4_VM7 () Int
    0)
  (define-fun StorageProv7 () Int
    2000)
  (define-fun StorageProv2 () Int
    2000)
  (define-fun StorageProv1 () Int
    2000)
  (define-fun C4_VM1 () Int
    0)
  (define-fun C1_VM3 () Int
    0)
  (define-fun MemProv2 () Int
    3750)
  (define-fun C4_VM2 () Int
    0)
  (define-fun C3_VM8 () Int
    0)
  (define-fun VM9Type () Int
    37)
  (define-fun ProcProv7 () Int
    4)
  (define-fun C3_VM3 () Int
    0)
  (define-fun VM4Type () Int
    37)
  (define-fun StorageProv4 () Int
    2000)
  (define-fun StorageProv3 () Int
    2000)
  (define-fun C1_VM2 () Int
    1)
  (define-fun PriceProv9 () Int
    128)
  (define-fun StorageProv8 () Int
    2000)
  (define-fun MemProv1 () Int
    3750)
  (define-fun C4_VM10 () Int
    0)
  (define-fun C4_VM9 () Int
    0)
  (define-fun C5_VM4 () Int
    0)
  (define-fun PriceProv4 () Int
    128)
  (define-fun StorageProv5 () Int
    2000)
  (define-fun PriceProv2 () Int
    128)
  (define-fun C4_VM3 () Int
    0)
  (define-fun VM2Type () Int
    37)
  (define-fun VM8Type () Int
    26)
  (define-fun C4_VM6 () Int
    0)
  (define-fun C1_VM5 () Int
    0)
  (define-fun VM10Type () Int
    37)
  (define-fun ProcProv8 () Int
    4)
  (define-fun ProcProv10 () Int
    2)
  (define-fun C1_VM10 () Int
    1)
  (define-fun StorageProv9 () Int
    2000)
  (define-fun C4_VM5 () Int
    0)
  (define-fun C3_VM4 () Int
    0)
  (define-fun ProcProv6 () Int
    2)
  (define-fun C1_VM8 () Int
    0)
  (define-fun C3_VM9 () Int
    0)
  (define-fun C5_VM10 () Int
    0)
  (define-fun ProcProv5 () Int
    4)
  (define-fun C1_VM6 () Int
    0)
  (define-fun MemProv6 () Int
    3750)
  (define-fun ProcProv2 () Int
    2)
  (define-fun VM3Type () Int
    37)
  (define-fun ProcProv4 () Int
    2)
  (define-fun PriceProv7 () Int
    252)
  (define-fun ProcProv1 () Int
    2)
  (define-fun VM1Type () Int
    37)
  (define-fun C3_VM10 () Int
    0)
  (define-fun PriceProv1 () Int
    128)
  (define-fun C3_VM7 () Int
    0)
  (define-fun ProcProv3 () Int
    2)
  (define-fun C1_VM1 () Int
    1)
  (define-fun PriceProv3 () Int
    128)
  (define-fun C5_VM5 () Int
    0)
  (define-fun C2_VM5 () Int
    0)
  (define-fun PriceProv5 () Int
    252)
  (define-fun C3_VM1 () Int
    0)
  (define-fun PriceProv6 () Int
    128)
  (define-fun StorageProv6 () Int
    2000)
  (define-fun ProcProv9 () Int
    2)
)
(objectives
 ( 40)
 ((+ 0
   PriceProv1
   PriceProv2
   PriceProv3
   PriceProv4
   PriceProv5
   PriceProv6
   PriceProv7
   PriceProv8
   PriceProv9
   PriceProv10) 1652)
)
(:added-eqs                   504468
 :arith-eq-adapter            78182
 :arith-bound-propagations-lp 569
 :arith-conflicts             31
 :arith-diseq                 375561
 :arith-fixed-eqs             11420
 :arith-lower                 319514
 :arith-make-feasible         58125
 :arith-max-columns           196
 :arith-max-rows              32
 :arith-upper                 479652
 :binary-propagations         1784493
 :conflicts                   4069
 :decisions                   142868
 :del-clause                  70301
 :final-checks                39
 :max-memory                  49.86
 :maxsat-cores                10
 :memory                      49.68
 :minimized-lits              42540
 :mk-bool-var                 151198
 :mk-clause                   73177
 :mk-clause-binary            7416
 :num-allocs                  304061120
 :num-checks                  59
 :pb-conflicts                2756
 :pb-predicates               767
 :pb-propagations             9764
 :pb-resolves                 2622
 :propagations                2460028
 :restarts                    25
 :rlimit-count                16251632
 :time                        0.88
 :total-time                  0.89)
